Maximize
  - 3.584800175255 edge_0_3_0_0 - 1.303934391144 edge_0_4_0_0
   - 3.054335404248 edge_0_5_0_0 - 3.14503383635 edge_0_6_0_0
   - 4.7294181998424 edge_0_7_0_0 - 0.54977603912768 edge_0_8_0_0
   - 3.4713040036944 edge_0_9_0_0 - 4.3815844904556 edge_0_10_0_0
   - 4.2534694895836 edge_0_13_0_0 + 3.480980443565108 edge_3_2_0_0
   + 1.860255351973304 edge_3_4_0_0 + 0.6053076232118666 edge_3_5_0_0
   + 1.33482827378319 edge_3_6_0_0 - 0.4103642091477984 edge_3_7_0_0
   + 0.211352850888804 edge_3_8_0_0 - 0.47786056124002 edge_3_9_0_0
   - 0.746283733327727 edge_3_10_0_0 + 0.857390507384781 edge_3_11_0_0
   - 0.0516158930677847 edge_3_12_0_0 - 0.0298409539772276 edge_3_13_0_0
   + 0.708054050162798 edge_3_14_0_0 - 0.6019460434868427 edge_3_16_0_0
   - 0.0201750481796947 edge_3_17_0_0 - 0.7738597310300142 edge_3_19_0_0
   + 0.1837266839921122 edge_3_20_0_0 - 0.0301925450050725 edge_3_21_0_0
   - 0.055927317022089 edge_3_22_0_0 + 2.1870216044244 edge_3_23_0_0
   + 0.5749702805202164 edge_4_2_0_0 + 1.764934786442402 edge_4_3_0_0
   + 1.98838185790745 edge_4_5_0_0 + 1.602551409209626 edge_4_6_0_0
   - 1.541582502559837 edge_4_7_0_0 + 1.492256673792477 edge_4_8_0_0
   + 0.8737710025450247 edge_4_9_0_0 + 0.6800300929657598 edge_4_10_0_0
   + 0.2263987679835622 edge_4_11_0_0 + 0.2104107968254525 edge_4_12_0_0
   - 0.4685647608129218 edge_4_13_0_0 - 0.9789919479509667 edge_4_14_0_0
   - 0.2349283862814685 edge_4_16_0_0 + 0.076562200944121 edge_4_17_0_0
   - 0.9676657850448125 edge_4_19_0_0 - 2.027169069599911 edge_4_20_0_0
   + 0.2225192489946557 edge_4_21_0_0 - 0.9990235297595932 edge_4_22_0_0
   + 2.20072391811924 edge_4_23_0_0 + 0.4853260084562823 edge_5_2_0_0
   + 1.39440966018508 edge_5_3_0_0 + 1.71793347840536 edge_5_4_0_0
   + 1.40791037936923 edge_5_6_0_0 + 0.0739543560718027 edge_5_7_0_0
   + 0.9404045915667461 edge_5_8_0_0 + 0.3282272275365347 edge_5_9_0_0
   - 0.1904805594484974 edge_5_10_0_0 + 1.055680450481542 edge_5_11_0_0
   - 0.0216868818742765 edge_5_12_0_0 - 0.7321347900941783 edge_5_13_0_0
   + 0.1311623750564136 edge_5_14_0_0 - 0.4981227420302414 edge_5_16_0_0
   + 0.8900793489977209 edge_5_17_0_0 - 0.6153767739074218 edge_5_20_0_0
   + 3.5549297328672 edge_5_23_0_0 - 0.7836454031682609 edge_6_4_0_0
   - 0.7585611289293097 edge_6_5_0_0 - 0.4476571681943427 edge_6_8_0_0
   - 0.1639633300673629 edge_7_3_0_0 + 1.359472011786413 edge_7_4_0_0
   + 0.9952634507072861 edge_7_5_0_0 + 0.9376738373687756 edge_7_6_0_0
   + 1.130035257018109 edge_7_8_0_0 + 0.0379594462775832 edge_7_9_0_0
   - 0.2020458541530884 edge_7_10_0_0 - 0.4314814308820719 edge_7_11_0_0
   - 0.0698479663976744 edge_7_14_0_0 + 1.365802748476829 edge_8_3_0_0
   + 1.159612507813547 edge_8_4_0_0 + 0.9879972736607205 edge_8_5_0_0
   + 1.507552154402221 edge_8_6_0_0 + 3.738303594792862 edge_8_7_0_0
   + 3.319443375187828 edge_8_9_0_0 + 2.885391625518371 edge_8_10_0_0
   + 2.024472090630593 edge_8_11_0_0 + 0.3297175130969173 edge_8_12_0_0
   + 1.884163815554515 edge_8_13_0_0 + 2.066425819991689 edge_8_14_0_0
   + 1.247948849914717 edge_8_16_0_0 + 1.682688376252157 edge_8_17_0_0
   + 0.6739814847679045 edge_8_19_0_0 + 1.935623922924097 edge_8_20_0_0
   + 0.1958542228936271 edge_8_21_0_0 + 0.572496620627736 edge_8_22_0_0
   + 5.1578429493318 edge_8_23_0_0 - 1.258195515298923 edge_9_3_0_0
   - 0.4712968612904784 edge_9_4_0_0 - 0.6856585178296579 edge_9_5_0_0
   + 0.0991340023637747 edge_9_6_0_0 + 0.7923392261614262 edge_9_7_0_0
   + 0.3378889917764727 edge_9_8_0_0 + 3.612626134736706 edge_9_10_0_0
   + 1.302964865722793 edge_9_11_0_0 + 1.262469910750799 edge_9_12_0_0
   + 1.89715165095213 edge_9_13_0_0 + 1.365867516419028 edge_9_14_0_0
   + 1.191372186589579 edge_9_16_0_0 + 1.229489701691369 edge_9_17_0_0
   + 1.237622400146039 edge_9_19_0_0 + 1.315761124259352 edge_9_20_0_0
   + 1.570457532153967 edge_9_21_0_0 + 1.74115906856334 edge_9_22_0_0
   + 1.7836506344352 edge_9_23_0_0 - 1.027591855551391 edge_10_3_0_0
   - 0.2201089047367072 edge_10_4_0_0 - 0.6241267544877604 edge_10_5_0_0
   + 0.3534037332780586 edge_10_6_0_0 + 1.462291196495469 edge_10_7_0_0
   + 0.4246594223579268 edge_10_8_0_0 + 1.515353419019856 edge_10_9_0_0
   + 0.9707595441035627 edge_10_11_0_0 + 1.60008416394785 edge_10_12_0_0
   + 2.423467332444214 edge_10_13_0_0 + 1.217976202418795 edge_10_14_0_0
   + 1.519142655725521 edge_10_16_0_0 + 0.5801756631284537 edge_10_17_0_0
   + 0.9800093661855567 edge_10_19_0_0 + 1.107069040036889 edge_10_20_0_0
   + 1.869866995437711 edge_10_21_0_0 + 2.213894411505535 edge_10_22_0_0
   + 1.1160581257756 edge_10_23_0_0 - 0.0752415297368966 edge_12_13_0_0
   - 0.3045483791204982 edge_12_16_0_0 - 1.002537270679313 edge_13_3_0_0
   + 0.5754765258903786 edge_13_4_0_0 + 0.431316056176007 edge_13_7_0_0
   + 0.1122727003271143 edge_13_9_0_0 + 0.3708101728054939 edge_13_10_0_0
   + 0.4724938897199165 edge_13_11_0_0 + 3.077266491165177 edge_13_12_0_0
   + 2.748603036611596 edge_13_14_0_0 + 0.451890712767148 edge_13_15_0_0
   + 2.48285570465268 edge_13_16_0_0 + 1.697946683339973 edge_13_17_0_0
   + 1.616149806062 edge_13_19_0_0 + 2.135873184261187 edge_13_20_0_0
   + 1.626218717417763 edge_13_21_0_0 + 2.083985075791021 edge_13_22_0_0
   + 1.8947397726312 edge_13_23_0_0 - 1.020512621510917 edge_16_3_0_0
   - 0.1707821196222747 edge_16_4_0_0 - 0.9264168732726707 edge_16_5_0_0
   - 1.269870400733011 edge_16_6_0_0 - 0.1708288622087469 edge_16_8_0_0
   + 0.0951434334902855 edge_16_9_0_0 + 0.0489460329618339 edge_16_10_0_0
   + 0.2195065209964774 edge_16_11_0_0 + 0.8017155658876245 edge_16_12_0_0
   + 1.327030329760772 edge_16_13_0_0 + 0.0621719773798673 edge_16_14_0_0
   + 2.367130177637078 edge_16_15_0_0 + 1.475159324412064 edge_16_17_0_0
   + 0.1661504325261829 edge_16_18_0_0 + 1.7891071195329 edge_16_19_0_0
   + 2.56577078886818 edge_16_20_0_0 + 0.6204982572011369 edge_16_21_0_0
   + 1.3177578784064 edge_16_22_0_0 + 1.1013182268748 edge_16_23_0_0
   - 0.1496658349993632 edge_17_19_0_0 - 1.884938373275582 edge_19_3_0_0
   - 0.1633344438371098 edge_19_12_0_0 - 0.0701082171967692 edge_19_13_0_0
   + 0.47138143380471 edge_19_15_0_0 + 0.050210119161578 edge_19_16_0_0
   + 0.47613755365352 edge_19_17_0_0 + 3.0886790948668 edge_19_18_0_0
   + 2.9159643353067 edge_19_20_0_0 + 1.377802051291875 edge_19_21_0_0
   + 2.69293 edge_19_22_0_0 + 1.78732 edge_19_23_0_0
   - 0.881380174824 edge_20_19_0_0 - 0.32827262047497 edge_20_22_0_0
   - 0.5233868460633755 edge_21_19_0_0 - 0.0965222713644601 edge_21_22_0_0
   - 1.0058871181953 edge_22_15_0_0 - 1.008198376798 edge_22_16_0_0
   + 0.4842137222389 edge_22_18_0_0 - 0.1356866609862788 edge_22_19_0_0
   + 2.3699782783088 edge_22_21_0_0 + 0.92297 edge_22_23_0_0
   - 1.368990759732381 edge_23_22_0_0
Subject To
 one_parent_1: = 1
 consume_one_flow_unit_1: = 1
 one_parent_2: edge_3_2_0_0 + edge_4_2_0_0 + edge_5_2_0_0 = 1
 consume_one_flow_unit_2: flow_3_2_0_0 + flow_4_2_0_0 + flow_5_2_0_0 = 1
 one_parent_3: edge_0_3_0_0 + edge_4_3_0_0 + edge_5_3_0_0 + edge_7_3_0_0
   + edge_8_3_0_0 + edge_9_3_0_0 + edge_10_3_0_0 + edge_13_3_0_0
   + edge_16_3_0_0 + edge_19_3_0_0 = 1
 consume_one_flow_unit_3: flow_0_3_0_0 - flow_3_2_0_0 - flow_3_4_0_0
   - flow_3_5_0_0 - flow_3_6_0_0 - flow_3_7_0_0 - flow_3_8_0_0
   - flow_3_9_0_0 - flow_3_10_0_0 - flow_3_11_0_0 - flow_3_12_0_0
   - flow_3_13_0_0 - flow_3_14_0_0 - flow_3_16_0_0 - flow_3_17_0_0
   - flow_3_19_0_0 - flow_3_20_0_0 - flow_3_21_0_0 - flow_3_22_0_0
   - flow_3_23_0_0 + flow_4_3_0_0 + flow_5_3_0_0 + flow_7_3_0_0
   + flow_8_3_0_0 + flow_9_3_0_0 + flow_10_3_0_0 + flow_13_3_0_0
   + flow_16_3_0_0 + flow_19_3_0_0 = 1
 one_parent_4: edge_0_4_0_0 + edge_3_4_0_0 + edge_5_4_0_0 + edge_6_4_0_0
   + edge_7_4_0_0 + edge_8_4_0_0 + edge_9_4_0_0 + edge_10_4_0_0
   + edge_13_4_0_0 + edge_16_4_0_0 = 1
 consume_one_flow_unit_4: flow_0_4_0_0 + flow_3_4_0_0 - flow_4_2_0_0
   - flow_4_3_0_0 - flow_4_5_0_0 - flow_4_6_0_0 - flow_4_7_0_0
   - flow_4_8_0_0 - flow_4_9_0_0 - flow_4_10_0_0 - flow_4_11_0_0
   - flow_4_12_0_0 - flow_4_13_0_0 - flow_4_14_0_0 - flow_4_16_0_0
   - flow_4_17_0_0 - flow_4_19_0_0 - flow_4_20_0_0 - flow_4_21_0_0
   - flow_4_22_0_0 - flow_4_23_0_0 + flow_5_4_0_0 + flow_6_4_0_0
   + flow_7_4_0_0 + flow_8_4_0_0 + flow_9_4_0_0 + flow_10_4_0_0
   + flow_13_4_0_0 + flow_16_4_0_0 = 1
 one_parent_5: edge_0_5_0_0 + edge_3_5_0_0 + edge_4_5_0_0 + edge_6_5_0_0
   + edge_7_5_0_0 + edge_8_5_0_0 + edge_9_5_0_0 + edge_10_5_0_0
   + edge_16_5_0_0 = 1
 consume_one_flow_unit_5: flow_0_5_0_0 + flow_3_5_0_0 + flow_4_5_0_0
   - flow_5_2_0_0 - flow_5_3_0_0 - flow_5_4_0_0 - flow_5_6_0_0
   - flow_5_7_0_0 - flow_5_8_0_0 - flow_5_9_0_0 - flow_5_10_0_0
   - flow_5_11_0_0 - flow_5_12_0_0 - flow_5_13_0_0 - flow_5_14_0_0
   - flow_5_16_0_0 - flow_5_17_0_0 - flow_5_20_0_0 - flow_5_23_0_0
   + flow_6_5_0_0 + flow_7_5_0_0 + flow_8_5_0_0 + flow_9_5_0_0
   + flow_10_5_0_0 + flow_16_5_0_0 = 1
 one_parent_6: edge_0_6_0_0 + edge_3_6_0_0 + edge_4_6_0_0 + edge_5_6_0_0
   + edge_7_6_0_0 + edge_8_6_0_0 + edge_9_6_0_0 + edge_10_6_0_0
   + edge_16_6_0_0 = 1
 consume_one_flow_unit_6: flow_0_6_0_0 + flow_3_6_0_0 + flow_4_6_0_0
   + flow_5_6_0_0 - flow_6_4_0_0 - flow_6_5_0_0 - flow_6_8_0_0
   + flow_7_6_0_0 + flow_8_6_0_0 + flow_9_6_0_0 + flow_10_6_0_0
   + flow_16_6_0_0 = 1
 one_parent_7: edge_0_7_0_0 + edge_3_7_0_0 + edge_4_7_0_0 + edge_5_7_0_0
   + edge_8_7_0_0 + edge_9_7_0_0 + edge_10_7_0_0 + edge_13_7_0_0 = 1
 consume_one_flow_unit_7: flow_0_7_0_0 + flow_3_7_0_0 + flow_4_7_0_0
   + flow_5_7_0_0 - flow_7_3_0_0 - flow_7_4_0_0 - flow_7_5_0_0
   - flow_7_6_0_0 - flow_7_8_0_0 - flow_7_9_0_0 - flow_7_10_0_0
   - flow_7_11_0_0 - flow_7_14_0_0 + flow_8_7_0_0 + flow_9_7_0_0
   + flow_10_7_0_0 + flow_13_7_0_0 = 1
 one_parent_8: edge_0_8_0_0 + edge_3_8_0_0 + edge_4_8_0_0 + edge_5_8_0_0
   + edge_6_8_0_0 + edge_7_8_0_0 + edge_9_8_0_0 + edge_10_8_0_0
   + edge_16_8_0_0 = 1
 consume_one_flow_unit_8: flow_0_8_0_0 + flow_3_8_0_0 + flow_4_8_0_0
   + flow_5_8_0_0 + flow_6_8_0_0 + flow_7_8_0_0 - flow_8_3_0_0
   - flow_8_4_0_0 - flow_8_5_0_0 - flow_8_6_0_0 - flow_8_7_0_0
   - flow_8_9_0_0 - flow_8_10_0_0 - flow_8_11_0_0 - flow_8_12_0_0
   - flow_8_13_0_0 - flow_8_14_0_0 - flow_8_16_0_0 - flow_8_17_0_0
   - flow_8_19_0_0 - flow_8_20_0_0 - flow_8_21_0_0 - flow_8_22_0_0
   - flow_8_23_0_0 + flow_9_8_0_0 + flow_10_8_0_0 + flow_16_8_0_0 = 1
 one_parent_9: edge_0_9_0_0 + edge_3_9_0_0 + edge_4_9_0_0 + edge_5_9_0_0
   + edge_7_9_0_0 + edge_8_9_0_0 + edge_10_9_0_0 + edge_13_9_0_0
   + edge_16_9_0_0 = 1
 consume_one_flow_unit_9: flow_0_9_0_0 + flow_3_9_0_0 + flow_4_9_0_0
   + flow_5_9_0_0 + flow_7_9_0_0 + flow_8_9_0_0 - flow_9_3_0_0
   - flow_9_4_0_0 - flow_9_5_0_0 - flow_9_6_0_0 - flow_9_7_0_0
   - flow_9_8_0_0 - flow_9_10_0_0 - flow_9_11_0_0 - flow_9_12_0_0
   - flow_9_13_0_0 - flow_9_14_0_0 - flow_9_16_0_0 - flow_9_17_0_0
   - flow_9_19_0_0 - flow_9_20_0_0 - flow_9_21_0_0 - flow_9_22_0_0
   - flow_9_23_0_0 + flow_10_9_0_0 + flow_13_9_0_0 + flow_16_9_0_0 = 1
 one_parent_10: edge_0_10_0_0 + edge_3_10_0_0 + edge_4_10_0_0
   + edge_5_10_0_0 + edge_7_10_0_0 + edge_8_10_0_0 + edge_9_10_0_0
   + edge_13_10_0_0 + edge_16_10_0_0 = 1
 consume_one_flow_unit_10: flow_0_10_0_0 + flow_3_10_0_0 + flow_4_10_0_0
   + flow_5_10_0_0 + flow_7_10_0_0 + flow_8_10_0_0 + flow_9_10_0_0
   - flow_10_3_0_0 - flow_10_4_0_0 - flow_10_5_0_0 - flow_10_6_0_0
   - flow_10_7_0_0 - flow_10_8_0_0 - flow_10_9_0_0 - flow_10_11_0_0
   - flow_10_12_0_0 - flow_10_13_0_0 - flow_10_14_0_0 - flow_10_16_0_0
   - flow_10_17_0_0 - flow_10_19_0_0 - flow_10_20_0_0 - flow_10_21_0_0
   - flow_10_22_0_0 - flow_10_23_0_0 + flow_13_10_0_0 + flow_16_10_0_0 = 1
 one_parent_11: edge_3_11_0_0 + edge_4_11_0_0 + edge_5_11_0_0
   + edge_7_11_0_0 + edge_8_11_0_0 + edge_9_11_0_0 + edge_10_11_0_0
   + edge_13_11_0_0 + edge_16_11_0_0 = 1
 consume_one_flow_unit_11: flow_3_11_0_0 + flow_4_11_0_0 + flow_5_11_0_0
   + flow_7_11_0_0 + flow_8_11_0_0 + flow_9_11_0_0 + flow_10_11_0_0
   + flow_13_11_0_0 + flow_16_11_0_0 = 1
 one_parent_12: edge_3_12_0_0 + edge_4_12_0_0 + edge_5_12_0_0
   + edge_8_12_0_0 + edge_9_12_0_0 + edge_10_12_0_0 + edge_13_12_0_0
   + edge_16_12_0_0 + edge_19_12_0_0 = 1
 consume_one_flow_unit_12: flow_3_12_0_0 + flow_4_12_0_0 + flow_5_12_0_0
   + flow_8_12_0_0 + flow_9_12_0_0 + flow_10_12_0_0 - flow_12_13_0_0
   - flow_12_16_0_0 + flow_13_12_0_0 + flow_16_12_0_0 + flow_19_12_0_0 = 1
 one_parent_13: edge_0_13_0_0 + edge_3_13_0_0 + edge_4_13_0_0
   + edge_5_13_0_0 + edge_8_13_0_0 + edge_9_13_0_0 + edge_10_13_0_0
   + edge_12_13_0_0 + edge_16_13_0_0 + edge_19_13_0_0 = 1
 consume_one_flow_unit_13: flow_0_13_0_0 + flow_3_13_0_0 + flow_4_13_0_0
   + flow_5_13_0_0 + flow_8_13_0_0 + flow_9_13_0_0 + flow_10_13_0_0
   + flow_12_13_0_0 - flow_13_3_0_0 - flow_13_4_0_0 - flow_13_7_0_0
   - flow_13_9_0_0 - flow_13_10_0_0 - flow_13_11_0_0 - flow_13_12_0_0
   - flow_13_14_0_0 - flow_13_15_0_0 - flow_13_16_0_0 - flow_13_17_0_0
   - flow_13_19_0_0 - flow_13_20_0_0 - flow_13_21_0_0 - flow_13_22_0_0
   - flow_13_23_0_0 + flow_16_13_0_0 + flow_19_13_0_0 = 1
 one_parent_14: edge_3_14_0_0 + edge_4_14_0_0 + edge_5_14_0_0
   + edge_7_14_0_0 + edge_8_14_0_0 + edge_9_14_0_0 + edge_10_14_0_0
   + edge_13_14_0_0 + edge_16_14_0_0 = 1
 consume_one_flow_unit_14: flow_3_14_0_0 + flow_4_14_0_0 + flow_5_14_0_0
   + flow_7_14_0_0 + flow_8_14_0_0 + flow_9_14_0_0 + flow_10_14_0_0
   + flow_13_14_0_0 + flow_16_14_0_0 = 1
 one_parent_15: edge_13_15_0_0 + edge_16_15_0_0 + edge_19_15_0_0
   + edge_22_15_0_0 = 1
 consume_one_flow_unit_15: flow_13_15_0_0 + flow_16_15_0_0 + flow_19_15_0_0
   + flow_22_15_0_0 = 1
 one_parent_16: edge_3_16_0_0 + edge_4_16_0_0 + edge_5_16_0_0
   + edge_8_16_0_0 + edge_9_16_0_0 + edge_10_16_0_0 + edge_12_16_0_0
   + edge_13_16_0_0 + edge_19_16_0_0 + edge_22_16_0_0 = 1
 consume_one_flow_unit_16: flow_3_16_0_0 + flow_4_16_0_0 + flow_5_16_0_0
   + flow_8_16_0_0 + flow_9_16_0_0 + flow_10_16_0_0 + flow_12_16_0_0
   + flow_13_16_0_0 - flow_16_3_0_0 - flow_16_4_0_0 - flow_16_5_0_0
   - flow_16_6_0_0 - flow_16_8_0_0 - flow_16_9_0_0 - flow_16_10_0_0
   - flow_16_11_0_0 - flow_16_12_0_0 - flow_16_13_0_0 - flow_16_14_0_0
   - flow_16_15_0_0 - flow_16_17_0_0 - flow_16_18_0_0 - flow_16_19_0_0
   - flow_16_20_0_0 - flow_16_21_0_0 - flow_16_22_0_0 - flow_16_23_0_0
   + flow_19_16_0_0 + flow_22_16_0_0 = 1
 one_parent_17: edge_3_17_0_0 + edge_4_17_0_0 + edge_5_17_0_0
   + edge_8_17_0_0 + edge_9_17_0_0 + edge_10_17_0_0 + edge_13_17_0_0
   + edge_16_17_0_0 + edge_19_17_0_0 = 1
 consume_one_flow_unit_17: flow_3_17_0_0 + flow_4_17_0_0 + flow_5_17_0_0
   + flow_8_17_0_0 + flow_9_17_0_0 + flow_10_17_0_0 + flow_13_17_0_0
   + flow_16_17_0_0 - flow_17_19_0_0 + flow_19_17_0_0 = 1
 one_parent_18: edge_16_18_0_0 + edge_19_18_0_0 + edge_22_18_0_0 = 1
 consume_one_flow_unit_18: flow_16_18_0_0 + flow_19_18_0_0 + flow_22_18_0_0
   = 1
 one_parent_19: edge_3_19_0_0 + edge_4_19_0_0 + edge_8_19_0_0
   + edge_9_19_0_0 + edge_10_19_0_0 + edge_13_19_0_0 + edge_16_19_0_0
   + edge_17_19_0_0 + edge_20_19_0_0 + edge_21_19_0_0 + edge_22_19_0_0 = 1
 consume_one_flow_unit_19: flow_3_19_0_0 + flow_4_19_0_0 + flow_8_19_0_0
   + flow_9_19_0_0 + flow_10_19_0_0 + flow_13_19_0_0 + flow_16_19_0_0
   + flow_17_19_0_0 - flow_19_3_0_0 - flow_19_12_0_0 - flow_19_13_0_0
   - flow_19_15_0_0 - flow_19_16_0_0 - flow_19_17_0_0 - flow_19_18_0_0
   - flow_19_20_0_0 - flow_19_21_0_0 - flow_19_22_0_0 - flow_19_23_0_0
   + flow_20_19_0_0 + flow_21_19_0_0 + flow_22_19_0_0 = 1
 one_parent_20: edge_3_20_0_0 + edge_4_20_0_0 + edge_5_20_0_0
   + edge_8_20_0_0 + edge_9_20_0_0 + edge_10_20_0_0 + edge_13_20_0_0
   + edge_16_20_0_0 + edge_19_20_0_0 = 1
 consume_one_flow_unit_20: flow_3_20_0_0 + flow_4_20_0_0 + flow_5_20_0_0
   + flow_8_20_0_0 + flow_9_20_0_0 + flow_10_20_0_0 + flow_13_20_0_0
   + flow_16_20_0_0 + flow_19_20_0_0 - flow_20_19_0_0 - flow_20_22_0_0 = 1
 one_parent_21: edge_3_21_0_0 + edge_4_21_0_0 + edge_8_21_0_0
   + edge_9_21_0_0 + edge_10_21_0_0 + edge_13_21_0_0 + edge_16_21_0_0
   + edge_19_21_0_0 + edge_22_21_0_0 = 1
 consume_one_flow_unit_21: flow_3_21_0_0 + flow_4_21_0_0 + flow_8_21_0_0
   + flow_9_21_0_0 + flow_10_21_0_0 + flow_13_21_0_0 + flow_16_21_0_0
   + flow_19_21_0_0 - flow_21_19_0_0 - flow_21_22_0_0 + flow_22_21_0_0 = 1
 one_parent_22: edge_3_22_0_0 + edge_4_22_0_0 + edge_8_22_0_0
   + edge_9_22_0_0 + edge_10_22_0_0 + edge_13_22_0_0 + edge_16_22_0_0
   + edge_19_22_0_0 + edge_20_22_0_0 + edge_21_22_0_0 + edge_23_22_0_0 = 1
 consume_one_flow_unit_22: flow_3_22_0_0 + flow_4_22_0_0 + flow_8_22_0_0
   + flow_9_22_0_0 + flow_10_22_0_0 + flow_13_22_0_0 + flow_16_22_0_0
   + flow_19_22_0_0 + flow_20_22_0_0 + flow_21_22_0_0 - flow_22_15_0_0
   - flow_22_16_0_0 - flow_22_18_0_0 - flow_22_19_0_0 - flow_22_21_0_0
   - flow_22_23_0_0 + flow_23_22_0_0 = 1
 one_parent_23: edge_3_23_0_0 + edge_4_23_0_0 + edge_5_23_0_0
   + edge_8_23_0_0 + edge_9_23_0_0 + edge_10_23_0_0 + edge_13_23_0_0
   + edge_16_23_0_0 + edge_19_23_0_0 + edge_22_23_0_0 = 1
 consume_one_flow_unit_23: flow_3_23_0_0 + flow_4_23_0_0 + flow_5_23_0_0
   + flow_8_23_0_0 + flow_9_23_0_0 + flow_10_23_0_0 + flow_13_23_0_0
   + flow_16_23_0_0 + flow_19_23_0_0 + flow_22_23_0_0 - flow_23_22_0_0 = 1
 root_flow: flow_0_3_0_0 + flow_0_4_0_0 + flow_0_5_0_0 + flow_0_6_0_0
   + flow_0_7_0_0 + flow_0_8_0_0 + flow_0_9_0_0 + flow_0_10_0_0
   + flow_0_13_0_0 = 23
 inactive_no_flow_0_3_0_0: flow_0_3_0_0 - 1000 edge_0_3_0_0 <= 0
 inactive_no_flow_0_4_0_0: flow_0_4_0_0 - 1000 edge_0_4_0_0 <= 0
 inactive_no_flow_0_5_0_0: flow_0_5_0_0 - 1000 edge_0_5_0_0 <= 0
 inactive_no_flow_0_6_0_0: flow_0_6_0_0 - 1000 edge_0_6_0_0 <= 0
 inactive_no_flow_0_7_0_0: flow_0_7_0_0 - 1000 edge_0_7_0_0 <= 0
 inactive_no_flow_0_8_0_0: flow_0_8_0_0 - 1000 edge_0_8_0_0 <= 0
 inactive_no_flow_0_9_0_0: flow_0_9_0_0 - 1000 edge_0_9_0_0 <= 0
 inactive_no_flow_0_10_0_0: flow_0_10_0_0 - 1000 edge_0_10_0_0 <= 0
 inactive_no_flow_0_13_0_0: flow_0_13_0_0 - 1000 edge_0_13_0_0 <= 0
 inactive_no_flow_3_2_0_0: flow_3_2_0_0 - 1000 edge_3_2_0_0 <= 0
 inactive_no_flow_3_4_0_0: flow_3_4_0_0 - 1000 edge_3_4_0_0 <= 0
 inactive_no_flow_3_5_0_0: flow_3_5_0_0 - 1000 edge_3_5_0_0 <= 0
 inactive_no_flow_3_6_0_0: flow_3_6_0_0 - 1000 edge_3_6_0_0 <= 0
 inactive_no_flow_3_7_0_0: flow_3_7_0_0 - 1000 edge_3_7_0_0 <= 0
 inactive_no_flow_3_8_0_0: flow_3_8_0_0 - 1000 edge_3_8_0_0 <= 0
 inactive_no_flow_3_9_0_0: flow_3_9_0_0 - 1000 edge_3_9_0_0 <= 0
 inactive_no_flow_3_10_0_0: flow_3_10_0_0 - 1000 edge_3_10_0_0 <= 0
 inactive_no_flow_3_11_0_0: flow_3_11_0_0 - 1000 edge_3_11_0_0 <= 0
 inactive_no_flow_3_12_0_0: flow_3_12_0_0 - 1000 edge_3_12_0_0 <= 0
 inactive_no_flow_3_13_0_0: flow_3_13_0_0 - 1000 edge_3_13_0_0 <= 0
 inactive_no_flow_3_14_0_0: flow_3_14_0_0 - 1000 edge_3_14_0_0 <= 0
 inactive_no_flow_3_16_0_0: flow_3_16_0_0 - 1000 edge_3_16_0_0 <= 0
 inactive_no_flow_3_17_0_0: flow_3_17_0_0 - 1000 edge_3_17_0_0 <= 0
 inactive_no_flow_3_19_0_0: flow_3_19_0_0 - 1000 edge_3_19_0_0 <= 0
 inactive_no_flow_3_20_0_0: flow_3_20_0_0 - 1000 edge_3_20_0_0 <= 0
 inactive_no_flow_3_21_0_0: flow_3_21_0_0 - 1000 edge_3_21_0_0 <= 0
 inactive_no_flow_3_22_0_0: flow_3_22_0_0 - 1000 edge_3_22_0_0 <= 0
 inactive_no_flow_3_23_0_0: flow_3_23_0_0 - 1000 edge_3_23_0_0 <= 0
 inactive_no_flow_4_2_0_0: flow_4_2_0_0 - 1000 edge_4_2_0_0 <= 0
 inactive_no_flow_4_3_0_0: flow_4_3_0_0 - 1000 edge_4_3_0_0 <= 0
 inactive_no_flow_4_5_0_0: flow_4_5_0_0 - 1000 edge_4_5_0_0 <= 0
 inactive_no_flow_4_6_0_0: flow_4_6_0_0 - 1000 edge_4_6_0_0 <= 0
 inactive_no_flow_4_7_0_0: flow_4_7_0_0 - 1000 edge_4_7_0_0 <= 0
 inactive_no_flow_4_8_0_0: flow_4_8_0_0 - 1000 edge_4_8_0_0 <= 0
 inactive_no_flow_4_9_0_0: flow_4_9_0_0 - 1000 edge_4_9_0_0 <= 0
 inactive_no_flow_4_10_0_0: flow_4_10_0_0 - 1000 edge_4_10_0_0 <= 0
 inactive_no_flow_4_11_0_0: flow_4_11_0_0 - 1000 edge_4_11_0_0 <= 0
 inactive_no_flow_4_12_0_0: flow_4_12_0_0 - 1000 edge_4_12_0_0 <= 0
 inactive_no_flow_4_13_0_0: flow_4_13_0_0 - 1000 edge_4_13_0_0 <= 0
 inactive_no_flow_4_14_0_0: flow_4_14_0_0 - 1000 edge_4_14_0_0 <= 0
 inactive_no_flow_4_16_0_0: flow_4_16_0_0 - 1000 edge_4_16_0_0 <= 0
 inactive_no_flow_4_17_0_0: flow_4_17_0_0 - 1000 edge_4_17_0_0 <= 0
 inactive_no_flow_4_19_0_0: flow_4_19_0_0 - 1000 edge_4_19_0_0 <= 0
 inactive_no_flow_4_20_0_0: flow_4_20_0_0 - 1000 edge_4_20_0_0 <= 0
 inactive_no_flow_4_21_0_0: flow_4_21_0_0 - 1000 edge_4_21_0_0 <= 0
 inactive_no_flow_4_22_0_0: flow_4_22_0_0 - 1000 edge_4_22_0_0 <= 0
 inactive_no_flow_4_23_0_0: flow_4_23_0_0 - 1000 edge_4_23_0_0 <= 0
 inactive_no_flow_5_2_0_0: flow_5_2_0_0 - 1000 edge_5_2_0_0 <= 0
 inactive_no_flow_5_3_0_0: flow_5_3_0_0 - 1000 edge_5_3_0_0 <= 0
 inactive_no_flow_5_4_0_0: flow_5_4_0_0 - 1000 edge_5_4_0_0 <= 0
 inactive_no_flow_5_6_0_0: flow_5_6_0_0 - 1000 edge_5_6_0_0 <= 0
 inactive_no_flow_5_7_0_0: flow_5_7_0_0 - 1000 edge_5_7_0_0 <= 0
 inactive_no_flow_5_8_0_0: flow_5_8_0_0 - 1000 edge_5_8_0_0 <= 0
 inactive_no_flow_5_9_0_0: flow_5_9_0_0 - 1000 edge_5_9_0_0 <= 0
 inactive_no_flow_5_10_0_0: flow_5_10_0_0 - 1000 edge_5_10_0_0 <= 0
 inactive_no_flow_5_11_0_0: flow_5_11_0_0 - 1000 edge_5_11_0_0 <= 0
 inactive_no_flow_5_12_0_0: flow_5_12_0_0 - 1000 edge_5_12_0_0 <= 0
 inactive_no_flow_5_13_0_0: flow_5_13_0_0 - 1000 edge_5_13_0_0 <= 0
 inactive_no_flow_5_14_0_0: flow_5_14_0_0 - 1000 edge_5_14_0_0 <= 0
 inactive_no_flow_5_16_0_0: flow_5_16_0_0 - 1000 edge_5_16_0_0 <= 0
 inactive_no_flow_5_17_0_0: flow_5_17_0_0 - 1000 edge_5_17_0_0 <= 0
 inactive_no_flow_5_20_0_0: flow_5_20_0_0 - 1000 edge_5_20_0_0 <= 0
 inactive_no_flow_5_23_0_0: flow_5_23_0_0 - 1000 edge_5_23_0_0 <= 0
 inactive_no_flow_6_4_0_0: flow_6_4_0_0 - 1000 edge_6_4_0_0 <= 0
 inactive_no_flow_6_5_0_0: flow_6_5_0_0 - 1000 edge_6_5_0_0 <= 0
 inactive_no_flow_6_8_0_0: flow_6_8_0_0 - 1000 edge_6_8_0_0 <= 0
 inactive_no_flow_7_3_0_0: flow_7_3_0_0 - 1000 edge_7_3_0_0 <= 0
 inactive_no_flow_7_4_0_0: flow_7_4_0_0 - 1000 edge_7_4_0_0 <= 0
 inactive_no_flow_7_5_0_0: flow_7_5_0_0 - 1000 edge_7_5_0_0 <= 0
 inactive_no_flow_7_6_0_0: flow_7_6_0_0 - 1000 edge_7_6_0_0 <= 0
 inactive_no_flow_7_8_0_0: flow_7_8_0_0 - 1000 edge_7_8_0_0 <= 0
 inactive_no_flow_7_9_0_0: flow_7_9_0_0 - 1000 edge_7_9_0_0 <= 0
 inactive_no_flow_7_10_0_0: flow_7_10_0_0 - 1000 edge_7_10_0_0 <= 0
 inactive_no_flow_7_11_0_0: flow_7_11_0_0 - 1000 edge_7_11_0_0 <= 0
 inactive_no_flow_7_14_0_0: flow_7_14_0_0 - 1000 edge_7_14_0_0 <= 0
 inactive_no_flow_8_3_0_0: flow_8_3_0_0 - 1000 edge_8_3_0_0 <= 0
 inactive_no_flow_8_4_0_0: flow_8_4_0_0 - 1000 edge_8_4_0_0 <= 0
 inactive_no_flow_8_5_0_0: flow_8_5_0_0 - 1000 edge_8_5_0_0 <= 0
 inactive_no_flow_8_6_0_0: flow_8_6_0_0 - 1000 edge_8_6_0_0 <= 0
 inactive_no_flow_8_7_0_0: flow_8_7_0_0 - 1000 edge_8_7_0_0 <= 0
 inactive_no_flow_8_9_0_0: flow_8_9_0_0 - 1000 edge_8_9_0_0 <= 0
 inactive_no_flow_8_10_0_0: flow_8_10_0_0 - 1000 edge_8_10_0_0 <= 0
 inactive_no_flow_8_11_0_0: flow_8_11_0_0 - 1000 edge_8_11_0_0 <= 0
 inactive_no_flow_8_12_0_0: flow_8_12_0_0 - 1000 edge_8_12_0_0 <= 0
 inactive_no_flow_8_13_0_0: flow_8_13_0_0 - 1000 edge_8_13_0_0 <= 0
 inactive_no_flow_8_14_0_0: flow_8_14_0_0 - 1000 edge_8_14_0_0 <= 0
 inactive_no_flow_8_16_0_0: flow_8_16_0_0 - 1000 edge_8_16_0_0 <= 0
 inactive_no_flow_8_17_0_0: flow_8_17_0_0 - 1000 edge_8_17_0_0 <= 0
 inactive_no_flow_8_19_0_0: flow_8_19_0_0 - 1000 edge_8_19_0_0 <= 0
 inactive_no_flow_8_20_0_0: flow_8_20_0_0 - 1000 edge_8_20_0_0 <= 0
 inactive_no_flow_8_21_0_0: flow_8_21_0_0 - 1000 edge_8_21_0_0 <= 0
 inactive_no_flow_8_22_0_0: flow_8_22_0_0 - 1000 edge_8_22_0_0 <= 0
 inactive_no_flow_8_23_0_0: flow_8_23_0_0 - 1000 edge_8_23_0_0 <= 0
 inactive_no_flow_9_3_0_0: flow_9_3_0_0 - 1000 edge_9_3_0_0 <= 0
 inactive_no_flow_9_4_0_0: flow_9_4_0_0 - 1000 edge_9_4_0_0 <= 0
 inactive_no_flow_9_5_0_0: flow_9_5_0_0 - 1000 edge_9_5_0_0 <= 0
 inactive_no_flow_9_6_0_0: flow_9_6_0_0 - 1000 edge_9_6_0_0 <= 0
 inactive_no_flow_9_7_0_0: flow_9_7_0_0 - 1000 edge_9_7_0_0 <= 0
 inactive_no_flow_9_8_0_0: flow_9_8_0_0 - 1000 edge_9_8_0_0 <= 0
 inactive_no_flow_9_10_0_0: flow_9_10_0_0 - 1000 edge_9_10_0_0 <= 0
 inactive_no_flow_9_11_0_0: flow_9_11_0_0 - 1000 edge_9_11_0_0 <= 0
 inactive_no_flow_9_12_0_0: flow_9_12_0_0 - 1000 edge_9_12_0_0 <= 0
 inactive_no_flow_9_13_0_0: flow_9_13_0_0 - 1000 edge_9_13_0_0 <= 0
 inactive_no_flow_9_14_0_0: flow_9_14_0_0 - 1000 edge_9_14_0_0 <= 0
 inactive_no_flow_9_16_0_0: flow_9_16_0_0 - 1000 edge_9_16_0_0 <= 0
 inactive_no_flow_9_17_0_0: flow_9_17_0_0 - 1000 edge_9_17_0_0 <= 0
 inactive_no_flow_9_19_0_0: flow_9_19_0_0 - 1000 edge_9_19_0_0 <= 0
 inactive_no_flow_9_20_0_0: flow_9_20_0_0 - 1000 edge_9_20_0_0 <= 0
 inactive_no_flow_9_21_0_0: flow_9_21_0_0 - 1000 edge_9_21_0_0 <= 0
 inactive_no_flow_9_22_0_0: flow_9_22_0_0 - 1000 edge_9_22_0_0 <= 0
 inactive_no_flow_9_23_0_0: flow_9_23_0_0 - 1000 edge_9_23_0_0 <= 0
 inactive_no_flow_10_3_0_0: flow_10_3_0_0 - 1000 edge_10_3_0_0 <= 0
 inactive_no_flow_10_4_0_0: flow_10_4_0_0 - 1000 edge_10_4_0_0 <= 0
 inactive_no_flow_10_5_0_0: flow_10_5_0_0 - 1000 edge_10_5_0_0 <= 0
 inactive_no_flow_10_6_0_0: flow_10_6_0_0 - 1000 edge_10_6_0_0 <= 0
 inactive_no_flow_10_7_0_0: flow_10_7_0_0 - 1000 edge_10_7_0_0 <= 0
 inactive_no_flow_10_8_0_0: flow_10_8_0_0 - 1000 edge_10_8_0_0 <= 0
 inactive_no_flow_10_9_0_0: flow_10_9_0_0 - 1000 edge_10_9_0_0 <= 0
 inactive_no_flow_10_11_0_0: flow_10_11_0_0 - 1000 edge_10_11_0_0 <= 0
 inactive_no_flow_10_12_0_0: flow_10_12_0_0 - 1000 edge_10_12_0_0 <= 0
 inactive_no_flow_10_13_0_0: flow_10_13_0_0 - 1000 edge_10_13_0_0 <= 0
 inactive_no_flow_10_14_0_0: flow_10_14_0_0 - 1000 edge_10_14_0_0 <= 0
 inactive_no_flow_10_16_0_0: flow_10_16_0_0 - 1000 edge_10_16_0_0 <= 0
 inactive_no_flow_10_17_0_0: flow_10_17_0_0 - 1000 edge_10_17_0_0 <= 0
 inactive_no_flow_10_19_0_0: flow_10_19_0_0 - 1000 edge_10_19_0_0 <= 0
 inactive_no_flow_10_20_0_0: flow_10_20_0_0 - 1000 edge_10_20_0_0 <= 0
 inactive_no_flow_10_21_0_0: flow_10_21_0_0 - 1000 edge_10_21_0_0 <= 0
 inactive_no_flow_10_22_0_0: flow_10_22_0_0 - 1000 edge_10_22_0_0 <= 0
 inactive_no_flow_10_23_0_0: flow_10_23_0_0 - 1000 edge_10_23_0_0 <= 0
 inactive_no_flow_12_13_0_0: flow_12_13_0_0 - 1000 edge_12_13_0_0 <= 0
 inactive_no_flow_12_16_0_0: flow_12_16_0_0 - 1000 edge_12_16_0_0 <= 0
 inactive_no_flow_13_3_0_0: flow_13_3_0_0 - 1000 edge_13_3_0_0 <= 0
 inactive_no_flow_13_4_0_0: flow_13_4_0_0 - 1000 edge_13_4_0_0 <= 0
 inactive_no_flow_13_7_0_0: flow_13_7_0_0 - 1000 edge_13_7_0_0 <= 0
 inactive_no_flow_13_9_0_0: flow_13_9_0_0 - 1000 edge_13_9_0_0 <= 0
 inactive_no_flow_13_10_0_0: flow_13_10_0_0 - 1000 edge_13_10_0_0 <= 0
 inactive_no_flow_13_11_0_0: flow_13_11_0_0 - 1000 edge_13_11_0_0 <= 0
 inactive_no_flow_13_12_0_0: flow_13_12_0_0 - 1000 edge_13_12_0_0 <= 0
 inactive_no_flow_13_14_0_0: flow_13_14_0_0 - 1000 edge_13_14_0_0 <= 0
 inactive_no_flow_13_15_0_0: flow_13_15_0_0 - 1000 edge_13_15_0_0 <= 0
 inactive_no_flow_13_16_0_0: flow_13_16_0_0 - 1000 edge_13_16_0_0 <= 0
 inactive_no_flow_13_17_0_0: flow_13_17_0_0 - 1000 edge_13_17_0_0 <= 0
 inactive_no_flow_13_19_0_0: flow_13_19_0_0 - 1000 edge_13_19_0_0 <= 0
 inactive_no_flow_13_20_0_0: flow_13_20_0_0 - 1000 edge_13_20_0_0 <= 0
 inactive_no_flow_13_21_0_0: flow_13_21_0_0 - 1000 edge_13_21_0_0 <= 0
 inactive_no_flow_13_22_0_0: flow_13_22_0_0 - 1000 edge_13_22_0_0 <= 0
 inactive_no_flow_13_23_0_0: flow_13_23_0_0 - 1000 edge_13_23_0_0 <= 0
 inactive_no_flow_16_3_0_0: flow_16_3_0_0 - 1000 edge_16_3_0_0 <= 0
 inactive_no_flow_16_4_0_0: flow_16_4_0_0 - 1000 edge_16_4_0_0 <= 0
 inactive_no_flow_16_5_0_0: flow_16_5_0_0 - 1000 edge_16_5_0_0 <= 0
 inactive_no_flow_16_6_0_0: flow_16_6_0_0 - 1000 edge_16_6_0_0 <= 0
 inactive_no_flow_16_8_0_0: flow_16_8_0_0 - 1000 edge_16_8_0_0 <= 0
 inactive_no_flow_16_9_0_0: flow_16_9_0_0 - 1000 edge_16_9_0_0 <= 0
 inactive_no_flow_16_10_0_0: flow_16_10_0_0 - 1000 edge_16_10_0_0 <= 0
 inactive_no_flow_16_11_0_0: flow_16_11_0_0 - 1000 edge_16_11_0_0 <= 0
 inactive_no_flow_16_12_0_0: flow_16_12_0_0 - 1000 edge_16_12_0_0 <= 0
 inactive_no_flow_16_13_0_0: flow_16_13_0_0 - 1000 edge_16_13_0_0 <= 0
 inactive_no_flow_16_14_0_0: flow_16_14_0_0 - 1000 edge_16_14_0_0 <= 0
 inactive_no_flow_16_15_0_0: flow_16_15_0_0 - 1000 edge_16_15_0_0 <= 0
 inactive_no_flow_16_17_0_0: flow_16_17_0_0 - 1000 edge_16_17_0_0 <= 0
 inactive_no_flow_16_18_0_0: flow_16_18_0_0 - 1000 edge_16_18_0_0 <= 0
 inactive_no_flow_16_19_0_0: flow_16_19_0_0 - 1000 edge_16_19_0_0 <= 0
 inactive_no_flow_16_20_0_0: flow_16_20_0_0 - 1000 edge_16_20_0_0 <= 0
 inactive_no_flow_16_21_0_0: flow_16_21_0_0 - 1000 edge_16_21_0_0 <= 0
 inactive_no_flow_16_22_0_0: flow_16_22_0_0 - 1000 edge_16_22_0_0 <= 0
 inactive_no_flow_16_23_0_0: flow_16_23_0_0 - 1000 edge_16_23_0_0 <= 0
 inactive_no_flow_17_19_0_0: flow_17_19_0_0 - 1000 edge_17_19_0_0 <= 0
 inactive_no_flow_19_3_0_0: flow_19_3_0_0 - 1000 edge_19_3_0_0 <= 0
 inactive_no_flow_19_12_0_0: flow_19_12_0_0 - 1000 edge_19_12_0_0 <= 0
 inactive_no_flow_19_13_0_0: flow_19_13_0_0 - 1000 edge_19_13_0_0 <= 0
 inactive_no_flow_19_15_0_0: flow_19_15_0_0 - 1000 edge_19_15_0_0 <= 0
 inactive_no_flow_19_16_0_0: flow_19_16_0_0 - 1000 edge_19_16_0_0 <= 0
 inactive_no_flow_19_17_0_0: flow_19_17_0_0 - 1000 edge_19_17_0_0 <= 0
 inactive_no_flow_19_18_0_0: flow_19_18_0_0 - 1000 edge_19_18_0_0 <= 0
 inactive_no_flow_19_20_0_0: flow_19_20_0_0 - 1000 edge_19_20_0_0 <= 0
 inactive_no_flow_19_21_0_0: flow_19_21_0_0 - 1000 edge_19_21_0_0 <= 0
 inactive_no_flow_19_22_0_0: flow_19_22_0_0 - 1000 edge_19_22_0_0 <= 0
 inactive_no_flow_19_23_0_0: flow_19_23_0_0 - 1000 edge_19_23_0_0 <= 0
 inactive_no_flow_20_19_0_0: flow_20_19_0_0 - 1000 edge_20_19_0_0 <= 0
 inactive_no_flow_20_22_0_0: flow_20_22_0_0 - 1000 edge_20_22_0_0 <= 0
 inactive_no_flow_21_19_0_0: flow_21_19_0_0 - 1000 edge_21_19_0_0 <= 0
 inactive_no_flow_21_22_0_0: flow_21_22_0_0 - 1000 edge_21_22_0_0 <= 0
 inactive_no_flow_22_15_0_0: flow_22_15_0_0 - 1000 edge_22_15_0_0 <= 0
 inactive_no_flow_22_16_0_0: flow_22_16_0_0 - 1000 edge_22_16_0_0 <= 0
 inactive_no_flow_22_18_0_0: flow_22_18_0_0 - 1000 edge_22_18_0_0 <= 0
 inactive_no_flow_22_19_0_0: flow_22_19_0_0 - 1000 edge_22_19_0_0 <= 0
 inactive_no_flow_22_21_0_0: flow_22_21_0_0 - 1000 edge_22_21_0_0 <= 0
 inactive_no_flow_22_23_0_0: flow_22_23_0_0 - 1000 edge_22_23_0_0 <= 0
 inactive_no_flow_23_22_0_0: flow_23_22_0_0 - 1000 edge_23_22_0_0 <= 0
Bounds
Binaries
 edge_0_3_0_0 edge_0_4_0_0 edge_0_5_0_0 edge_0_6_0_0 edge_0_7_0_0
 edge_0_8_0_0 edge_0_9_0_0 edge_0_10_0_0 edge_0_13_0_0 edge_3_2_0_0
 edge_3_4_0_0 edge_3_5_0_0 edge_3_6_0_0 edge_3_7_0_0 edge_3_8_0_0
 edge_3_9_0_0 edge_3_10_0_0 edge_3_11_0_0 edge_3_12_0_0 edge_3_13_0_0
 edge_3_14_0_0 edge_3_16_0_0 edge_3_17_0_0 edge_3_19_0_0 edge_3_20_0_0
 edge_3_21_0_0 edge_3_22_0_0 edge_3_23_0_0 edge_4_2_0_0 edge_4_3_0_0
 edge_4_5_0_0 edge_4_6_0_0 edge_4_7_0_0 edge_4_8_0_0 edge_4_9_0_0
 edge_4_10_0_0 edge_4_11_0_0 edge_4_12_0_0 edge_4_13_0_0 edge_4_14_0_0
 edge_4_16_0_0 edge_4_17_0_0 edge_4_19_0_0 edge_4_20_0_0 edge_4_21_0_0
 edge_4_22_0_0 edge_4_23_0_0 edge_5_2_0_0 edge_5_3_0_0 edge_5_4_0_0
 edge_5_6_0_0 edge_5_7_0_0 edge_5_8_0_0 edge_5_9_0_0 edge_5_10_0_0
 edge_5_11_0_0 edge_5_12_0_0 edge_5_13_0_0 edge_5_14_0_0 edge_5_16_0_0
 edge_5_17_0_0 edge_5_20_0_0 edge_5_23_0_0 edge_6_4_0_0 edge_6_5_0_0
 edge_6_8_0_0 edge_7_3_0_0 edge_7_4_0_0 edge_7_5_0_0 edge_7_6_0_0
 edge_7_8_0_0 edge_7_9_0_0 edge_7_10_0_0 edge_7_11_0_0 edge_7_14_0_0
 edge_8_3_0_0 edge_8_4_0_0 edge_8_5_0_0 edge_8_6_0_0 edge_8_7_0_0
 edge_8_9_0_0 edge_8_10_0_0 edge_8_11_0_0 edge_8_12_0_0 edge_8_13_0_0
 edge_8_14_0_0 edge_8_16_0_0 edge_8_17_0_0 edge_8_19_0_0 edge_8_20_0_0
 edge_8_21_0_0 edge_8_22_0_0 edge_8_23_0_0 edge_9_3_0_0 edge_9_4_0_0
 edge_9_5_0_0 edge_9_6_0_0 edge_9_7_0_0 edge_9_8_0_0 edge_9_10_0_0
 edge_9_11_0_0 edge_9_12_0_0 edge_9_13_0_0 edge_9_14_0_0 edge_9_16_0_0
 edge_9_17_0_0 edge_9_19_0_0 edge_9_20_0_0 edge_9_21_0_0 edge_9_22_0_0
 edge_9_23_0_0 edge_10_3_0_0 edge_10_4_0_0 edge_10_5_0_0 edge_10_6_0_0
 edge_10_7_0_0 edge_10_8_0_0 edge_10_9_0_0 edge_10_11_0_0 edge_10_12_0_0
 edge_10_13_0_0 edge_10_14_0_0 edge_10_16_0_0 edge_10_17_0_0 edge_10_19_0_0
 edge_10_20_0_0 edge_10_21_0_0 edge_10_22_0_0 edge_10_23_0_0 edge_12_13_0_0
 edge_12_16_0_0 edge_13_3_0_0 edge_13_4_0_0 edge_13_7_0_0 edge_13_9_0_0
 edge_13_10_0_0 edge_13_11_0_0 edge_13_12_0_0 edge_13_14_0_0 edge_13_15_0_0
 edge_13_16_0_0 edge_13_17_0_0 edge_13_19_0_0 edge_13_20_0_0 edge_13_21_0_0
 edge_13_22_0_0 edge_13_23_0_0 edge_16_3_0_0 edge_16_4_0_0 edge_16_5_0_0
 edge_16_6_0_0 edge_16_8_0_0 edge_16_9_0_0 edge_16_10_0_0 edge_16_11_0_0
 edge_16_12_0_0 edge_16_13_0_0 edge_16_14_0_0 edge_16_15_0_0 edge_16_17_0_0
 edge_16_18_0_0 edge_16_19_0_0 edge_16_20_0_0 edge_16_21_0_0 edge_16_22_0_0
 edge_16_23_0_0 edge_17_19_0_0 edge_19_3_0_0 edge_19_12_0_0 edge_19_13_0_0
 edge_19_15_0_0 edge_19_16_0_0 edge_19_17_0_0 edge_19_18_0_0 edge_19_20_0_0
 edge_19_21_0_0 edge_19_22_0_0 edge_19_23_0_0 edge_20_19_0_0 edge_20_22_0_0
 edge_21_19_0_0 edge_21_22_0_0 edge_22_15_0_0 edge_22_16_0_0 edge_22_18_0_0
 edge_22_19_0_0 edge_22_21_0_0 edge_22_23_0_0 edge_23_22_0_0
End
